c Sudoku solution
p cnf 729 0
142 0
159 0
177 0
284 0
295 0
311 0
364 0
372 0
383 0
451 0
496 0
515 0
549 0
557 0
618 0
631 0
644 0
653 0
721 0
778 0
829 0
834 0
876 0
186 0
891 0
581 0
271 0
198 0
399 0
161 0
941 0
488 0
445 0
462 0
666 0
568 0
355 0
912 0
987 0
697 0
622 0
592 0
232 0
219 0
716 0
956 0
754 0
852 0
848 0
885 0
439 0
258 0
675 0
689 0
979 0
994 0
793 0
782 0
747 0
863 0
735 0
817 0
769 0
965 0
427 0
125 0
114 0
133 0
413 0
536 0
524 0
474 0
573 0
923 0
938 0
226 0
346 0
328 0
337 0
243 0
267 0
